53
3 79 56 17 
3 48 13 53 
3 72 44 89 
3 118 11 57 
3 65 40 50 
3 110 114 86 
3 112 47 32 
3 100 116 80 
2 85 43 
2 46 82 
3 42 12 96 
2 69 73 
3 108 39 30 
3 88 77 60 
2 22 113 
3 81 66 63 
2 67 1 
3 35 2 24 
3 59 98 74 
3 95 6 20 
2 49 55 
1 16 
3 41 119 97 
2 52 99 
3 71 15 62 
3 61 87 54 
1 18 
1 111 
3 117 105 36 
2 33 45 
3 27 102 92 
1 34 
1 68 
1 101 
2 78 104 
2 7 14 
2 94 70 
2 3 103 
3 117 108 105 
2 83 31 
2 19 93 
2 51 120 
1 109 
2 76 106 
1 64 
2 115 5 
1 37 
2 38 26 
3 84 107 90 
2 67 1 
2 30 29 
2 58 75 
3 4 23 54 
